 param size := 9;
 
 param nsubsets := 3;
 
 set ROWSUBS[1] := 1 2 3;
 set ROWSUBS[2] := 4 5 6;
 set ROWSUBS[3] := 7 8 9;
 
 set COLSUBS[1] := 1 2 3;
 set COLSUBS[2] := 4 5 6;
 set COLSUBS[3] := 7 8 9;
 
 param GRID:
    1 2 3 4 5 6 7 8 9 :=
 
1 8 0 2 0 0 4 9 0 0
2 1 0 0 0 0 2 0 0 8
3 7 6 9 5 3 8 2 1 4
4 6 0 0 0 0 7 0 0 0
5 0 0 3 0 6 0 0 0 0
6 0 0 1 0 0 3 6 4 0
7 3 9 8 0 0 0 4 7 6
8 5 1 6 7 4 9 8 3 2
9 4 2 7 3 8 6 1 9 5
 ;
